; benchmark generated from python API
(set-info :status unknown)
(declare-datatypes ((IntState 0)) (((Mk1 (val1 Int)) (Mk2 (val2 Int)))))
 (declare-fun c_main_~y~0 () Int)
(declare-fun c_main_~x~0 () Int)
(assert
 (let (($x120 (exists ((|v_main_#t~nondet1_6_st| IntState) (val!26 Int) )(exists ((|v_main_#t~nondet1_5_st| IntState) (val!27 Int) )(let ((?x81 (+ (* 2 (val2 |v_main_#t~nondet1_6_st|)) (* 2 (val2 |v_main_#t~nondet1_5_st|)) 1)))
 (let (($x112 (not (= |v_main_#t~nondet1_5_st| (Mk1 val!27)))))
 (let (($x98 (not (= |v_main_#t~nondet1_6_st| (Mk1 val!26)))))
 (and $x98 $x112 (= ?x81 c_main_~y~0))))))
 )
 ))
 (let (($x149 (exists ((|v_main_#t~nondet0_5_st| IntState) (val!24 Int) )(exists ((|v_main_#t~nondet0_6_st| IntState) (val!25 Int) )(let ((?x81 (+ (* 2 (val2 |v_main_#t~nondet0_5_st|)) (* 2 (val2 |v_main_#t~nondet0_6_st|)) 1)))
 (let (($x112 (not (= |v_main_#t~nondet0_6_st| (Mk1 val!25)))))
 (let (($x98 (not (= |v_main_#t~nondet0_5_st| (Mk1 val!24)))))
 (and $x98 $x112 (= ?x81 c_main_~x~0))))))
 )
 ))
 (let (($x146 (exists ((|v_main_#t~nondet1_6| Int) )(exists ((|v_main_#t~nondet1_7| Int) )(exists ((|v_main_#t~nondet1_5| Int) )(let ((?x20 (* 2 |v_main_#t~nondet1_5|)))
 (let ((?x21 (* 2 |v_main_#t~nondet1_7|)))
 (let ((?x10 (* 2 |v_main_#t~nondet1_6|)))
 (let ((?x19 (+ ?x10 ?x21 ?x20 1)))
 (= c_main_~y~0 ?x19))))))
 )
 )
 ))
 (let (($x145 (exists ((|v_main_#t~nondet0_7| Int) )(exists ((|v_main_#t~nondet0_5| Int) )(exists ((|v_main_#t~nondet0_6| Int) )(let ((?x20 (* 2 |v_main_#t~nondet0_6|)))
 (let ((?x21 (* 2 |v_main_#t~nondet0_5|)))
 (let ((?x10 (* 2 |v_main_#t~nondet0_7|)))
 (let ((?x19 (+ ?x10 ?x21 ?x20 1)))
 (= ?x19 c_main_~x~0))))))
 )
 )
 ))
 (and (and $x145 $x146) (not (and $x149 $x120))))))))
(check-sat)
